
Gurobi 9.0.1 (linux64) logging started Thu Apr 30 05:59:07 2020

Gurobi Optimizer version 9.0.1 build v9.0.1rc0 (linux64)
Optimize a model with 2058 rows, 2120 columns and 19760 nonzeros
Model fingerprint: 0x51d90d8c
Variable types: 0 continuous, 2120 integer (2106 binary)
Coefficient statistics:
  Matrix range     [1e+00, 7e+00]
  Objective range  [7e+00, 1e+02]
  Bounds range     [1e+00, 1e+00]
  RHS range        [1e+00, 1e+00]

User MIP start produced solution with objective 801 (0.01s)
Loaded user MIP start with objective 801

Presolve removed 920 rows and 752 columns
Presolve time: 0.13s
Presolved: 1138 rows, 1368 columns, 13764 nonzeros
Variable types: 0 continuous, 1368 integer (1368 binary)

Root relaxation: objective 4.937259e+02, 536 iterations, 0.03 seconds

    Nodes    |    Current Node    |     Objective Bounds      |     Work
 Expl Unexpl |  Obj  Depth IntInf | Incumbent    BestBd   Gap | It/Node Time

     0     0  493.72593    0  188  801.00000  493.72593  38.4%     -    0s
     0     0  533.86043    0  245  801.00000  533.86043  33.4%     -    0s
H    0     0                     794.0000000  533.86043  32.8%     -    0s
     0     0  535.70624    0  246  794.00000  535.70624  32.5%     -    0s
     0     0  545.45227    0  254  794.00000  545.45227  31.3%     -    0s
     0     0  545.55875    0  247  794.00000  545.55875  31.3%     -    0s
     0     0  558.67498    0  273  794.00000  558.67498  29.6%     -    0s
     0     0  559.81572    0  232  794.00000  559.81572  29.5%     -    0s
     0     0  559.81572    0  235  794.00000  559.81572  29.5%     -    0s
     0     0  571.17665    0  271  794.00000  571.17665  28.1%     -    1s
     0     0  571.41431    0  267  794.00000  571.41431  28.0%     -    1s
     0     0  579.35399    0  275  794.00000  579.35399  27.0%     -    1s
     0     0  579.74874    0  281  794.00000  579.74874  27.0%     -    1s
     0     0  585.66260    0  280  794.00000  585.66260  26.2%     -    1s
     0     0  585.98659    0  284  794.00000  585.98659  26.2%     -    1s
     0     0  589.30877    0  298  794.00000  589.30877  25.8%     -    1s
     0     0  589.41016    0  305  794.00000  589.41016  25.8%     -    1s
     0     0  589.45255    0  307  794.00000  589.45255  25.8%     -    1s
     0     0  589.45679    0  306  794.00000  589.45679  25.8%     -    1s
     0     0  590.82411    0  295  794.00000  590.82411  25.6%     -    1s
     0     0  590.94756    0  299  794.00000  590.94756  25.6%     -    1s
     0     0  590.95140    0  300  794.00000  590.95140  25.6%     -    1s
     0     0  591.00478    0  299  794.00000  591.00478  25.6%     -    1s
     0     0  591.00478    0  291  794.00000  591.00478  25.6%     -    1s
     0     2  591.58524    0  287  794.00000  591.58524  25.5%     -    1s
H   54    54                     771.0000000  598.38678  22.4%  89.7    2s
*   81    81              47     754.0000000  598.38678  20.6%  93.6    2s
*   96    92              60     752.0000000  598.38678  20.4%  82.8    2s
H  109    93                     734.0000000  598.56860  18.5%  79.9    3s
*  127    78              22     680.0000000  598.56860  12.0%  82.9    3s
H  302   121                     676.0000000  609.69880  9.81%  60.1    4s
H  380    99                     669.0000000  616.48164  7.85%  57.5    4s
   454   116     cutoff   20       669.00000  619.63420  7.38%  56.7    5s
  1411    77     cutoff   15       669.00000  655.09916  2.08%  52.3   10s

Cutting planes:
  Gomory: 1
  Cover: 4
  MIR: 19
  Inf proof: 8
  Zero half: 45
  RLT: 19

Explored 1532 nodes (79927 simplex iterations) in 10.33 seconds
Thread count was 1 (of 40 available processors)

Solution count 9: 669 676 680 ... 801

Optimal solution found (tolerance 1.00e-04)
Best objective 6.690000000000e+02, best bound 6.690000000000e+02, gap 0.0000%

User-callback calls 6117, time in user-callback 0.01 sec
